
Gurobi 9.1.2 (win64, R) logging started Fri Jan 21 15:16:00 2022

Academic license - for non-commercial use only - expires 2022-08-20

Gurobi 9.1.2 (win64, R) logging started Fri Jan 21 15:16:00 2022

Academic license - for non-commercial use only - expires 2022-08-20
Gurobi Optimizer version 9.1.2 build v9.1.2rc0 (win64)
Thread count: 10 physical cores, 20 logical processors, using up to 20 threads
Optimize a model with 14 rows, 98 columns and 98 nonzeros
Model fingerprint: 0xbddc1063
Coefficient statistics:
  Matrix range     [1e+00, 1e+00]
  Objective range  [8e+00, 1e+01]
  Bounds range     [1e+00, 1e+00]
  RHS range        [2e+00, 7e+00]
Presolve removed 1 rows and 33 columns
Presolve time: 0.00s

Solved in 0 iterations and 0.00 seconds
Infeasible model

Gurobi 9.1.2 (win64, R) logging started Fri Jan 21 15:16:00 2022

Academic license - for non-commercial use only - expires 2022-08-20

Gurobi 9.1.2 (win64, R) logging started Fri Jan 21 15:16:00 2022

Academic license - for non-commercial use only - expires 2022-08-20
Gurobi Optimizer version 9.1.2 build v9.1.2rc0 (win64)
Thread count: 10 physical cores, 20 logical processors, using up to 20 threads
Optimize a model with 14 rows, 126 columns and 126 nonzeros
Model fingerprint: 0xa5484b98
Coefficient statistics:
  Matrix range     [1e+00, 1e+00]
  Objective range  [1e+00, 1e+00]
  Bounds range     [1e+00, 1e+00]
  RHS range        [2e+00, 7e+00]
Presolve removed 5 rows and 99 columns
Presolve time: 0.00s
Presolved: 9 rows, 27 columns, 27 nonzeros

Iteration    Objective       Primal Inf.    Dual Inf.      Time
       0    6.0000000e+00   0.000000e+00   0.000000e+00      0s
       0    6.0000000e+00   0.000000e+00   0.000000e+00      0s

Solved in 0 iterations and 0.00 seconds
Optimal objective  6.000000000e+00
